Route #1: 46 4 39 42 44 40 53
Route #2: 21 54 55 15 56 5
Route #3: 28 13 58 22 52 45 12
Route #4: 31 18 33 47 26 2 66
Route #5: 41 51 32 37 65 59 24 29
Route #6: 23 8 7 10 27 43 16
Route #7: 17 38 20 19 50 14
Route #8: 11 35 49 1 36 6 34 64
Route #9: 60 3 57 30 61 62
Route #10: 9 48 25 63
Cost 1072